Version identifier: 22.1.0.0 | 2022-03-09 | 1a383f8ce
CPXPARAM_Read_DataCheck                          1
Tried aggregator 3 times.
MIP Presolve eliminated 39274 rows and 4457 columns.
MIP Presolve modified 589 coefficients.
Aggregator did 35562 substitutions.
Reduced MIP has 5006 rows, 36841 columns, and 78731 nonzeros.
Reduced MIP has 36813 binaries, 28 generals, 0 SOSs, and 0 indicators.
Presolve time = 0.37 sec. (373.96 ticks)
Tried aggregator 1 time.
Detecting symmetries...
Reduced MIP has 5006 rows, 36841 columns, and 78731 nonzeros.
Reduced MIP has 36813 binaries, 28 generals, 0 SOSs, and 0 indicators.
Presolve time = 0.06 sec. (56.20 ticks)
Probing fixed 42 vars, tightened 0 bounds.
Probing changed sense of 6 constraints.
Probing time = 0.11 sec. (11.94 ticks)
Clique table members: 74939.
MIP emphasis: balance optimality and feasibility.
MIP search method: dynamic search.
Parallel mode: deterministic, using up to 8 threads.
Root relaxation solution time = 0.49 sec. (275.46 ticks)

        Nodes                                         Cuts/
   Node  Left     Objective  IInf  Best Integer    Best Bound    ItCnt     Gap

      0     0       28.4003  3852                     28.4003     4524         
      0     0       45.0000   717                    Cuts: 39    10479         
      0     0       45.0000   727                    Cuts: 44    14898         
      0     0       45.0000   561                 ZeroHalf: 5    20123         
      0     0       45.0000   501                ZeroHalf: 35    25768         
      0     0       45.0000   564                ZeroHalf: 35    27213         
Heuristic still looking.
*     0+    0                           50.0000       45.0000            10.00%
*     0+    0                           49.0000       45.0000             8.16%
*     0+    0                           48.0000       45.0000             6.25%
      0     0  -1.00000e+75     0       48.0000       45.0000    27213    6.25%
      0     2       45.0000   333       48.0000       45.0000    27213    6.25%
Elapsed time = 158.47 sec. (57588.72 ticks, tree = 0.02 MB, solutions = 3)
      1     3       45.0000   362       48.0000       45.0000    31084    6.25%
      2     4       45.0000   297       48.0000       45.0000    34211    6.25%
      3     5       45.0000   263       48.0000       45.0000    37130    6.25%
*     4+    2                           47.0000       45.0000             4.26%
      4     4       45.0000   258       47.0000       45.0000    34030    4.26%
      5     6       45.0000   293       47.0000       45.0000    39325    4.26%
      6     3       45.0000   534       47.0000       45.0000    32309    4.26%
      8     7       45.0000   210       47.0000       45.0000    41652    4.26%
     10    11       45.0000   188       47.0000       45.0000    58318    4.26%
     12     7       45.0000   236       47.0000       45.0000    41070    4.26%
     13     8       45.0000   248       47.0000       45.0000    44661    4.26%
Elapsed time = 178.91 sec. (67449.12 ticks, tree = 0.02 MB, solutions = 6)
     17    15       45.0000   244       47.0000       45.0000    66289    4.26%
     23     9       45.0000   405       47.0000       45.0000    55949    4.26%
     29    26       45.0000   318       47.0000       45.0000   138495    4.26%
     45    38       45.2500   423       47.0000       45.0000   149927    4.26%
     60    40       45.0000   251       47.0000       45.0000   150056    4.26%
     78    72       45.6429   442       47.0000       45.0000   194659    4.26%
    100    70       45.0000   784       47.0000       45.0000   199125    4.26%
    134   114       45.5000    78       47.0000       45.0000   234277    4.26%
*   147    99      integral     0       46.0000       45.0000   234662    2.17%
    167    70       45.0000   332       46.0000       45.0000   244450    2.17%
    194    65       45.0000   395       46.0000       45.0000   248913    2.17%
Elapsed time = 213.93 sec. (77581.21 ticks, tree = 0.70 MB, solutions = 7)
    234    90       45.0000   305       46.0000       45.0000   302253    2.17%
    298    87       45.0000   474       46.0000       45.0000   302055    2.17%
*   365    83      integral     0       45.0000       45.0000   309958    0.00%
    412   119       45.0000   306       45.0000       45.0000   317671    0.00%
    495   131       45.0000   482       45.0000       45.0000   315998    0.00%

Cover cuts applied:  2
Zero-half cuts applied:  59
Lift and project cuts applied:  1
Gomory fractional cuts applied:  19

Root node processing (before b&c):
  Real time             =  158.37 sec. (57555.53 ticks)
Parallel b&c, 8 threads:
  Real time             =   69.91 sec. (24691.54 ticks)
  Sync time (average)   =   20.27 sec.
  Wait time (average)   =    0.00 sec.
                          ------------
Total (root+branch&cut) =  228.29 sec. (82247.06 ticks)
